 vasp.6.4.2 20Jul23 (build Oct 20 2023 11:58:12) gamma-only

 executed on             LinuxIFC date 2024.07.20  19:04:17

 INCAR:
   SYSTEM = Bulk
   LCHARG = T
   LWAVE = T
   ISTART = 1
   ICHARG = 1
   ISMEAR = 1
   SIGMA = 0.1
   ENCUT = 500
   EDIFF = 1E-5
   NELM = 150
   NELMIN = 6
   ISIF = 2
   ALGO = Normal
   LREAL = Auto
   ISYM = 0
   IBRION = 2
   POTIM = 0.2
   EDIFFG = -0.02
   NSW = 3
   LWAVE = .FALSE.
   LCHARG = .FALSE.
   NPAR = 4

 POTCAR:    PAW_PBE Ru_pv 28Jan2005
 POTCAR:    PAW_PBE N 08Apr2002
 POTCAR:    PAW_PBE H 15Jun2001
 POTCAR:    PAW_PBE C 08Apr2002
 POTCAR:    PAW_PBE O 08Apr2002
 POTCAR:    PAW_PBE Ru_pv 28Jan2005
   VRHFIN =Ru: 4p5s4d

   TITEL  = PAW_PBE Ru_pv 28Jan2005
   POMASS =  101.070; ZVAL   =   14.000    mass and valenz
   ENMAX  =  240.049; ENMIN  =  180.037 eV

 POTCAR:    PAW_PBE N 08Apr2002
   VRHFIN =N: s2p3

   TITEL  = PAW_PBE N 08Apr2002
   POMASS =   14.001; ZVAL   =    5.000    mass and valenz
   ENMAX  =  400.000; ENMIN  =  300.000 eV

 POTCAR:    PAW_PBE H 15Jun2001
   VRHFIN =H: ultrasoft test

   TITEL  = PAW_PBE H 15Jun2001
   POMASS =    1.000; ZVAL   =    1.000    mass and valenz
   ENMAX  =  250.000; ENMIN  =  200.000 eV

 POTCAR:    PAW_PBE C 08Apr2002
   VRHFIN =C: s2p2

[...]

 POTCAR:    PAW_PBE O 08Apr2002
   VRHFIN =O: s2p4

   TITEL  = PAW_PBE O 08Apr2002
   POMASS =   16.000; ZVAL   =    6.000    mass and valenz
   ENMAX  =  400.000; ENMIN  =  300.000 eV

 Optimization of the real space projectors (new method)

 maximal supplied QI-value         = 15.12
 optimisation between [QCUT,QGAM] = [ 11.34, 22.83] = [ 36.00,145.93] Ry
 Optimized for a Real-space Cutoff    1.43 Angstroem

   l    n(q)    QCUT    max X(q) W(low)/X(q) W(high)/X(q)  e(spline)
   1      9    11.338     3.180    0.41E-04    0.57E-05    0.54E-07
   1      9    11.338     5.351    0.17E-03    0.94E-04    0.32E-06
   2      9    11.338    66.565    0.29E-03    0.11E-04    0.27E-06
   2      9    11.338    63.466    0.30E-03    0.11E-04    0.28E-06
   0     10    11.338    85.644    0.87E-04    0.33E-04    0.16E-06
   0     10    11.338    44.119    0.80E-04    0.30E-04    0.15E-06
 Optimization of the real space projectors (new method)

[...]

   l    n(q)    QCUT    max X(q) W(low)/X(q) W(high)/X(q)  e(spline)
   0      7    11.310   115.676    0.43E-03    0.13E-02    0.19E-06
   0      7    11.310    87.132    0.43E-03    0.13E-02    0.18E-06
   1      6    11.310     4.429    0.42E-03    0.74E-03    0.11E-06
   1      6    11.310     2.733    0.34E-03    0.55E-03    0.92E-07
 Optimization of the real space projectors (new method)

 maximal supplied QI-value         = 24.76
 optimisation between [QCUT,QGAM] = [ 11.39, 22.77] = [ 36.31,145.25] Ry
 Optimized for a Real-space Cutoff    1.00 Angstroem

   l    n(q)    QCUT    max X(q) W(low)/X(q) W(high)/X(q)  e(spline)
   0      7    11.387    20.381    0.39E-03    0.13E-02    0.15E-06
   0      7    11.387    15.268    0.42E-03    0.14E-02    0.17E-06
   1      6    11.387     5.964    0.41E-03    0.11E-02    0.17E-06
   1      6    11.387     5.382    0.39E-03    0.87E-03    0.15E-06
  PAW_PBE Ru_pv 28Jan2005               :
  PAW_PBE N 08Apr2002                   :
  PAW_PBE H 15Jun2001                   :
  PAW_PBE C 08Apr2002                   :
  PAW_PBE O 08Apr2002                   :

 POSCAR: Ru N  H  C  O
  positions in cartesian coordinates
 exchange correlation table for  LEXCH =        8
   RHO(1)=    0.500       N(1)  =     2000
   RHO(2)=  100.500       N(2)  =     4000

 ion  position               nearest neighbor table
   1  0.155  0.078  0.375-  20 2.56  17 2.58  21 2.59   4 2.68   5 2.70  16 2.70  13 2.72   6 2.72
                             2 2.74
   2  0.156  0.331  0.376-  18 2.57  17 2.58  22 2.58   7 2.70   3 2.70  14 2.71   6 2.72  13 2.73
                             1 2.74
   3  0.156  0.580  0.375-  18 2.58  23 2.59  19 2.59   7 2.69   2 2.70   8 2.70  14 2.72   4 2.72
                            15 2.74
   4  0.154  0.830  0.375-  20 2.58  24 2.59  19 2.60  16 2.67   1 2.68  15 2.70   3 2.72   5 2.72
                             8 2.74
   5  0.405  0.080  0.375-  24 2.59  21 2.59  25 2.60  10 2.69   6 2.69   9 2.70   1 2.70   4 2.72
                             8 2.73
   6  0.406  0.329  0.376-  26 2.56  21 2.58  22 2.60  10 2.67   5 2.69  11 2.70   2 2.72   1 2.72
                             7 2.73
   7  0.405  0.581  0.376-  27 2.57  23 2.57  22 2.59   8 2.68  12 2.68   3 2.69   2 2.70  11 2.72
                             6 2.73
   8  0.406  0.829  0.375-  28 2.59  23 2.59  24 2.59  12 2.67   7 2.68   9 2.69   3 2.70   5 2.73
                             4 2.74
   9  0.653  0.078  0.376-  29 2.57  28 2.58  25 2.59   8 2.69   5 2.70  12 2.70  13 2.71  10 2.73
                            14 2.73
  10  0.653  0.330  0.376-  26 2.55  25 2.57  30 2.58   6 2.67  11 2.69   5 2.69  15 2.73   9 2.73
                            14 2.74
  11  0.655  0.579  0.376-  26 2.56  27 2.56  31 2.57  10 2.69  15 2.69   6 2.70  16 2.71  12 2.72
                             7 2.72
  12  0.652  0.828  0.376-  27 2.56  28 2.57  32 2.58   8 2.67   7 2.68   9 2.70  11 2.72  13 2.73
                            16 2.75
  13  0.904  0.079  0.376-  29 2.55  17 2.56  32 2.57  14 2.70   9 2.71   1 2.72  12 2.73   2 2.73
                            16 2.73
  14  0.905  0.330  0.376-  18 2.55  29 2.55  30 2.58  13 2.70   2 2.71   3 2.72  15 2.73   9 2.73
                            10 2.74
  15  0.904  0.581  0.376-  31 2.58  19 2.58  30 2.60  16 2.67  11 2.69   4 2.70  10 2.73  14 2.73
                             3 2.74
  16  0.906  0.828  0.376-  20 2.57  31 2.59  32 2.60  15 2.67   4 2.67   1 2.70  11 2.71  13 2.73
                            12 2.75
  17  0.071  0.162  0.455-  13 2.56   2 2.58   1 2.58  34 2.69  33 2.69  45 2.69  20 2.70  29 2.71
                            21 2.71  18 2.71  32 2.71  22 2.72
  18  0.071  0.412  0.455-  14 2.55   2 2.57   3 2.58  46 2.69  34 2.70  29 2.70  35 2.70  19 2.70
                            17 2.71  30 2.71  22 2.72  23 2.72
  19  0.070  0.662  0.456-  15 2.58   3 2.59   4 2.60  47 2.68  36 2.69  35 2.69  30 2.70  31 2.70
                            18 2.70  20 2.72  24 2.72  23 2.73
  20  0.072  0.914  0.455-   1 2.56  16 2.57   4 2.58  33 2.68  48 2.69  36 2.69  17 2.70  21 2.71
                            24 2.71  32 2.72  19 2.72  31 2.73
  21  0.322  0.164  0.456-   6 2.58   1 2.59   5 2.59  33 2.68  37 2.69  38 2.69  26 2.70  22 2.70
                            20 2.71  17 2.71  25 2.71  24 2.71
  22  0.322  0.413  0.456-   2 2.58   7 2.59   6 2.60  39 2.68  34 2.68  38 2.69  23 2.70  26 2.70
                            27 2.70  21 2.70  17 2.72  18 2.72
  23  0.322  0.662  0.456-   7 2.57   3 2.59   8 2.59  39 2.68  35 2.68  40 2.69  27 2.69  22 2.70
                            28 2.70  24 2.72  18 2.72  19 2.73
  24  0.321  0.913  0.456-   5 2.59   8 2.59   4 2.59  36 2.68  37 2.68  40 2.70  20 2.71  21 2.71
                            23 2.72  28 2.72  19 2.72  25 2.72
  25  0.573  0.164  0.456-  10 2.57   9 2.59   5 2.60  42 2.68  37 2.69  41 2.69  30 2.69  26 2.70
                            29 2.70  21 2.71  24 2.72  28 2.73
  26  0.571  0.412  0.455-  10 2.55  11 2.56   6 2.56  25 2.70  21 2.70  22 2.70  31 2.70  43 2.70
                            30 2.70  27 2.71  38 2.71  42 2.71
  27  0.571  0.663  0.455-  12 2.56  11 2.56   7 2.57  23 2.69  28 2.70  22 2.70  32 2.70  43 2.71
                            31 2.71  44 2.71  26 2.71  39 2.72
  28  0.572  0.912  0.456-  12 2.57   9 2.58   8 2.59  44 2.67  41 2.68  32 2.69  40 2.69  27 2.70
                            23 2.70  29 2.71  24 2.72  25 2.73
  29  0.821  0.163  0.455-  13 2.55  14 2.55   9 2.57  46 2.70  18 2.70  45 2.70  25 2.70  17 2.71
                            28 2.71  32 2.71  41 2.71  30 2.71
  30  0.821  0.413  0.456-  14 2.58  10 2.58  15 2.60  47 2.68  46 2.69  25 2.69  31 2.69  42 2.70
                            19 2.70  26 2.70  18 2.71  29 2.71
  31  0.821  0.661  0.456-  11 2.57  15 2.58  16 2.59  43 2.67  47 2.68  48 2.68  30 2.69  26 2.70
                            19 2.70  27 2.71  32 2.72  20 2.73
  32  0.820  0.912  0.456-  13 2.57  12 2.58  16 2.60  48 2.68  44 2.68  45 2.69  28 2.69  27 2.70
                            29 2.71  17 2.71  31 2.72  20 2.72
  33  0.155  0.079  0.541-  53 2.56  52 2.56  49 2.56  21 2.68  20 2.68  17 2.69  38 2.70  37 2.70
                            48 2.70  36 2.70  34 2.71  45 2.71
  34  0.154  0.329  0.541-  54 2.54  49 2.57  50 2.57  22 2.68  17 2.69  18 2.70  39 2.70  45 2.70
                            33 2.71  46 2.71  38 2.71  35 2.71
  35  0.155  0.580  0.541-  55 2.56  51 2.57  50 2.57  23 2.68  39 2.68  19 2.69  40 2.70  18 2.70
                            47 2.71  36 2.71  34 2.71  46 2.72
  36  0.156  0.830  0.541-  56 2.57  52 2.58  51 2.58  24 2.68  19 2.69  20 2.69  37 2.69  40 2.70
                            33 2.70  35 2.71  47 2.71  48 2.71
  37  0.404  0.079  0.541-  56 2.57  53 2.58  57 2.58  24 2.68  21 2.69  25 2.69  36 2.69  42 2.70
                            33 2.70  38 2.71  41 2.71  40 2.71
  38  0.404  0.329  0.542-  54 2.55  53 2.57  58 2.65  22 2.69  21 2.69  33 2.70  42 2.71  37 2.71
                            34 2.71  26 2.71  39 2.71  43 2.72
  39  0.403  0.578  0.542-  55 2.57  54 2.57  59 2.60  22 2.68  23 2.68  35 2.68  34 2.70  40 2.70
                            38 2.71  27 2.72  44 2.73  43 2.73
  40  0.405  0.829  0.541-  56 2.56  60 2.56  55 2.57  23 2.69  28 2.69  36 2.70  24 2.70  35 2.70
                            44 2.70  41 2.70  39 2.70  37 2.71
  41  0.654  0.079  0.541-  60 2.55  57 2.56  61 2.56  28 2.68  25 2.69  44 2.69  40 2.70  42 2.70
                            37 2.71  45 2.71  46 2.71  29 2.71
  42  0.654  0.328  0.542-  62 2.57  57 2.57  58 2.64  25 2.68  30 2.70  37 2.70  41 2.70  38 2.71
                            46 2.71  43 2.71  26 2.71  47 2.72
  43  0.655  0.579  0.541-  63 2.56  59 2.59  58 2.65  31 2.67  26 2.70  27 2.71  47 2.71  42 2.71
                            48 2.71  38 2.72  44 2.72  39 2.73
  44  0.655  0.831  0.541-  60 2.58  64 2.58  59 2.59  28 2.67  32 2.68  41 2.69  45 2.70  40 2.70
                            27 2.71  48 2.72  43 2.72  39 2.73
  45  0.905  0.079  0.541-  64 2.56  49 2.57  61 2.57  32 2.69  17 2.69  44 2.70  46 2.70  29 2.70
                            48 2.70  34 2.70  41 2.71  33 2.71
  46  0.904  0.329  0.541-  62 2.56  50 2.56  61 2.56  30 2.69  18 2.69  29 2.70  45 2.70  34 2.71
                            41 2.71  42 2.71  47 2.71  35 2.72
  47  0.906  0.580  0.541-  63 2.54  51 2.57  62 2.57  19 2.68  31 2.68  30 2.68  35 2.71  43 2.71
                            36 2.71  46 2.71  48 2.72  42 2.72
  48  0.905  0.830  0.541-  63 2.54  64 2.57  52 2.57  32 2.68  31 2.68  20 2.69  33 2.70  45 2.70
                            43 2.71  36 2.71  47 2.72  44 2.72
  49  0.072  0.161  0.620-  33 2.56  34 2.57  45 2.57  54 2.67  64 2.68  53 2.68  52 2.68  50 2.72
                            61 2.73
  50  0.070  0.412  0.620-  46 2.56  35 2.57  34 2.57  62 2.68  54 2.69  51 2.70  61 2.70  55 2.70
                            49 2.72
[...]

 FORCES acting on ions
    electron-ion (+dipol)            ewald-force                    non-local-force                 convergence-correction
   0.135E+02 -.203E+02 0.574E+04   -.134E+02 0.200E+02 -.573E+04   -.567E-01 0.103E+00 -.443E+01   0.304E-01 0.836E-02 0.266E-01
   -.505E+01 0.160E+02 0.573E+04   0.483E+01 -.158E+02 -.572E+04   0.107E+00 -.448E-01 -.472E+01   0.448E-02 0.436E-01 0.397E-01
   0.196E+02 -.147E+01 0.573E+04   -.194E+02 0.135E+01 -.572E+04   -.515E-01 0.422E-01 -.437E+01   0.247E-01 0.171E-01 0.357E-01
   -.287E+02 0.671E+01 0.573E+04   0.281E+02 -.660E+01 -.573E+04   0.116E+00 -.838E-01 -.446E+01   0.424E-01 -.119E-01 0.138E-01
   -.415E+01 0.164E+02 0.573E+04   0.398E+01 -.160E+02 -.573E+04   0.588E-01 -.114E+00 -.471E+01   0.540E-01 0.339E-02 0.361E-01
   0.291E+02 0.191E+01 0.573E+04   -.288E+02 -.210E+01 -.573E+04   -.166E+00 0.152E-01 -.481E+01   0.218E-01 0.200E-01 0.351E-01
   -.599E+01 0.203E+02 0.573E+04   0.571E+01 -.201E+02 -.573E+04   0.211E-01 -.993E-01 -.465E+01   -.262E-03 0.356E-01 0.465E-01
   0.306E+02 -.111E+02 0.573E+04   -.302E+02 0.109E+02 -.572E+04   -.125E+00 0.102E+00 -.447E+01   0.357E-01 0.416E-02 0.453E-01
   -.255E+01 -.175E+02 0.573E+04   0.271E+01 0.173E+02 -.573E+04   -.124E+00 0.446E-01 -.449E+01   -.261E-01 -.149E-01 0.518E-01
   -.351E+02 0.532E+01 0.573E+04   0.348E+02 -.533E+01 -.573E+04   0.151E+00 -.151E-01 -.474E+01   0.156E-01 -.217E-01 0.285E-01
   0.569E+01 -.136E+02 0.572E+04   -.551E+01 0.134E+02 -.572E+04   -.466E-02 0.159E+00 -.458E+01   -.133E-01 0.153E-02 0.242E-01
   -.314E+02 -.110E+02 0.573E+04   0.309E+02 0.111E+02 -.573E+04   0.232E+00 -.327E-01 -.469E+01   -.477E-01 -.795E-02 0.392E-01
   -.739E+01 0.484E+01 0.573E+04   0.735E+01 -.471E+01 -.572E+04   0.868E-01 -.859E-01 -.482E+01   -.575E-01 -.117E-01 0.319E-01
   0.130E+02 -.479E+01 0.572E+04   -.128E+02 0.472E+01 -.572E+04   -.468E-01 0.337E-01 -.487E+01   -.402E-01 -.286E-02 0.325E-01
   -.207E+02 0.230E+02 0.573E+04   0.204E+02 -.226E+02 -.573E+04   0.848E-01 -.125E+00 -.473E+01   -.917E-02 -.301E-01 0.216E-01
   0.299E+02 -.140E+02 0.573E+04   -.293E+02 0.139E+02 -.572E+04   -.221E+00 0.807E-01 -.468E+01   -.295E-01 -.355E-01 0.233E-01
   -.265E+01 -.415E+01 0.206E+04   0.273E+01 0.409E+01 -.206E+04   0.574E-02 0.126E-01 0.439E+00   -.142E-01 0.313E-01 0.802E-01
   -.505E+01 -.504E+01 0.205E+04   0.507E+01 0.506E+01 -.205E+04   0.362E-01 0.392E-01 0.339E+00   0.137E-01 0.680E-02 0.574E-01
   -.159E+02 -.930E+01 0.205E+04   0.159E+02 0.933E+01 -.205E+04   0.263E-01 0.196E-01 0.235E+00   0.161E-01 -.223E-01 0.195E-01
   -.211E+01 0.320E+01 0.205E+04   0.218E+01 -.312E+01 -.205E+04   -.781E-01 -.687E-01 0.301E+00   0.114E-02 -.611E-02 0.443E-01
   0.294E+01 0.969E+01 0.204E+04   -.305E+01 -.974E+01 -.204E+04   0.233E-01 0.103E-01 0.201E+00   0.416E-01 0.260E-01 0.588E-01
   0.914E+01 0.110E+02 0.203E+04   -.913E+01 -.111E+02 -.203E+04   0.458E-03 -.391E-01 0.339E+00   -.260E-02 0.400E-01 0.722E-01
   0.234E+02 -.484E+01 0.203E+04   -.235E+02 0.479E+01 -.203E+04   -.723E-01 0.145E-01 0.220E+00   0.505E-01 0.113E-01 0.424E-01
   -.422E+01 0.336E+01 0.206E+04   0.410E+01 -.342E+01 -.206E+04   0.869E-01 0.182E-01 0.281E+00   0.710E-01 0.156E-01 0.180E-01
   -.366E+01 0.220E+02 0.203E+04   0.365E+01 -.220E+02 -.203E+04   -.102E-01 -.135E+00 0.316E+00   0.190E-01 -.180E-01 0.351E-01
   0.554E+01 0.940E+00 0.204E+04   -.548E+01 -.102E+01 -.204E+04   -.238E-01 0.323E-01 0.496E+00   0.714E-03 -.114E-01 0.481E-01
   -.476E+01 0.700E+00 0.204E+04   0.478E+01 -.666E+00 -.204E+04   0.210E-01 -.453E-01 0.597E+00   -.459E-01 0.171E-01 0.506E-01
   0.183E+02 -.147E+02 0.203E+04   -.182E+02 0.148E+02 -.203E+04   -.118E+00 0.199E-01 0.237E+00   -.755E-02 -.624E-02 0.420E-01
   0.433E+01 0.106E+01 0.206E+04   -.430E+01 -.109E+01 -.206E+04   -.498E-01 0.784E-02 0.351E+00   -.472E-01 -.181E-01 0.558E-01
   -.118E+02 0.483E+01 0.205E+04   0.118E+02 -.479E+01 -.205E+04   0.258E-01 0.800E-02 0.330E+00   -.129E-01 -.299E-01 0.245E-01
   -.209E+01 -.168E+02 0.203E+04   0.224E+01 0.168E+02 -.203E+04   -.440E-02 0.964E-01 0.290E+00   -.213E-01 -.204E-01 0.407E-01
   -.121E+02 -.234E+01 0.205E+04   0.121E+02 0.233E+01 -.205E+04   0.101E+00 -.322E-01 0.275E+00   -.645E-01 -.156E-01 0.553E-01
   0.335E+01 0.221E+01 -.158E+04   -.330E+01 -.223E+01 0.158E+04   -.700E-02 0.323E-01 -.333E+00   -.335E-02 0.565E-01 0.493E-01
   0.271E+02 0.164E+02 -.158E+04   -.271E+02 -.164E+02 0.159E+04   0.112E+00 0.298E-01 -.480E+00   0.296E-01 0.322E-01 0.603E-01
   0.508E+01 0.437E+01 -.158E+04   -.513E+01 -.424E+01 0.158E+04   -.225E-01 -.895E-01 -.412E+00   0.774E-01 -.271E-01 0.302E-01
   -.794E+01 -.739E+01 -.159E+04   0.800E+01 0.733E+01 0.159E+04   -.996E-01 -.365E-02 -.589E+00   0.245E-01 0.124E-01 0.113E-01
   0.398E+01 0.129E+02 -.159E+04   -.405E+01 -.128E+02 0.159E+04   0.138E-01 -.833E-01 -.589E+00   0.391E-01 0.340E-01 0.173E-01
   0.128E+01 0.178E+02 -.160E+04   -.888E+00 -.175E+02 0.160E+04   -.263E+00 -.184E+00 -.734E+00   -.327E-01 0.235E-01 0.478E-01
   0.868E+01 -.608E+01 -.159E+04   -.832E+01 0.618E+01 0.159E+04   -.169E+00 -.150E-01 -.732E+00   -.159E-02 -.384E-02 0.509E-01
   0.164E+02 -.708E+01 -.160E+04   -.165E+02 0.702E+01 0.160E+04   -.174E-01 0.639E-01 -.605E+00   0.753E-01 -.793E-02 0.249E-01
   -.842E+01 -.582E+01 -.158E+04   0.843E+01 0.583E+01 0.158E+04   -.185E-01 0.776E-01 -.393E+00   -.147E-02 -.252E-01 0.239E-01
   -.541E+00 0.225E+02 -.159E+04   0.337E+00 -.221E+02 0.159E+04   0.233E+00 -.838E-01 -.766E+00   -.363E-02 -.313E-01 0.156E-01
   0.149E+02 0.177E+01 -.155E+04   -.152E+02 -.188E+01 0.155E+04   0.312E+00 0.244E-01 -.775E+00   -.476E-01 0.730E-02 0.304E-01
   0.674E+01 -.103E+02 -.159E+04   -.656E+01 0.998E+01 0.159E+04   0.109E-01 0.199E+00 -.654E+00   -.408E-01 -.533E-02 0.375E-01
   0.726E+00 -.245E+02 -.159E+04   -.754E+00 0.244E+02 0.159E+04   0.526E-01 -.556E-02 -.414E+00   -.333E-01 0.558E-03 0.413E-01
   -.277E+02 0.165E+02 -.158E+04   0.275E+02 -.164E+02 0.158E+04   -.492E-01 0.569E-01 -.406E+00   0.577E-02 -.305E-01 0.279E-01
   -.282E+02 -.759E+01 -.156E+04   0.281E+02 0.737E+01 0.156E+04   0.406E-01 0.792E-01 -.529E+00   -.293E-01 -.323E-01 0.735E-02
   -.142E+02 -.245E+02 -.154E+04   0.141E+02 0.246E+02 0.155E+04   0.748E-01 -.587E-01 -.417E+00   -.591E-01 -.498E-02 0.332E-01
   0.489E+02 -.756E+01 -.537E+04   -.483E+02 0.735E+01 0.537E+04   -.274E+00 -.534E-01 0.424E+01   0.508E-02 0.471E-01 0.178E-01
   -.121E+02 0.449E+02 -.536E+04   0.120E+02 -.444E+02 0.535E+04   0.101E+00 -.122E+00 0.411E+01   0.628E-01 -.137E-01 0.217E-01
   -.591E+02 -.512E+02 -.533E+04   0.593E+02 0.508E+02 0.532E+04   -.170E+00 0.217E+00 0.451E+01   0.351E-01 -.310E-01 0.311E-01
   -.632E+02 -.352E+02 -.534E+04   0.628E+02 0.354E+02 0.534E+04   0.128E+00 -.101E+00 0.414E+01   -.290E-01 0.394E-01 0.349E-01
   0.840E+01 0.815E+02 -.533E+04   -.902E+01 -.819E+02 0.533E+04   0.316E+00 0.182E+00 0.495E+01   -.105E-01 0.478E-01 0.222E-01
   0.104E+03 0.659E+02 -.524E+04   -.105E+03 -.664E+02 0.524E+04   0.431E+00 0.369E+00 0.499E+01   -.140E-01 0.243E-01 0.103E-01
   0.771E+02 -.183E+02 -.531E+04   -.780E+02 0.183E+02 0.530E+04   0.371E+00 -.102E-01 0.433E+01   0.776E-01 -.273E-01 0.188E-01
   0.379E+02 0.503E+00 -.539E+04   -.374E+02 -.568E+00 0.538E+04   -.150E+00 0.452E-02 0.474E+01   0.673E-01 0.236E-01 0.267E-01
   0.699E+01 0.656E+02 -.532E+04   -.629E+01 -.664E+02 0.531E+04   -.363E+00 0.425E+00 0.503E+01   0.198E-01 -.205E-01 0.100E-01
   0.240E+02 0.142E+03 -.502E+04   -.239E+02 -.142E+03 0.501E+04   -.401E-01 0.116E+00 0.642E+01   -.455E-01 -.225E-02 0.170E-02
   0.778E+02 -.880E+02 -.500E+04   -.777E+02 0.883E+02 0.499E+04   -.172E+00 -.201E+00 0.395E+01   -.489E-01 0.103E-02 -.103E-01
   0.160E+02 -.380E+02 -.531E+04   -.167E+02 0.386E+02 0.531E+04   0.307E+00 -.337E+00 0.390E+01   0.150E-01 -.160E-01 0.981E-02
[...]
   0.919E+01 -.122E+03 -.529E+04   -.856E+01 0.122E+03 0.528E+04   -.223E+00 -.130E-01 0.446E+01   -.505E-01 -.314E-02 0.109E-01
   0.156E+03 -.747E+02 -.213E+04   -.150E+03 0.759E+02 0.211E+04   -.583E+01 -.111E+01 0.184E+02   -.563E-02 -.220E-02 -.190E-01
   0.618E+02 -.678E+02 -.445E+03   -.656E+02 0.732E+02 0.447E+03   0.417E+01 -.539E+01 -.180E+01   -.104E-02 0.207E-03 -.457E-02
   0.739E+02 0.529E+02 -.442E+03   -.782E+02 -.588E+02 0.443E+03   0.434E+01 0.562E+01 -.147E+01   -.117E-02 -.696E-03 -.499E-02
   -.314E+02 -.805E+02 -.406E+03   0.340E+02 0.851E+02 0.406E+03   -.291E+01 -.486E+01 0.244E+00   -.811E-03 0.758E-03 -.348E-02
   0.446E+02 -.425E+02 -.343E+03   -.485E+02 0.465E+02 0.346E+03   0.367E+01 -.376E+01 -.227E+01   -.411E-03 0.139E-05 -.315E-02
   0.368E+02 0.572E+02 -.352E+03   -.391E+02 -.623E+02 0.353E+03   0.217E+01 0.510E+01 -.421E+00   -.256E-03 -.472E-03 -.337E-02
   -.416E+02 -.304E+01 -.349E+03   0.463E+02 0.304E+01 0.353E+03   -.465E+01 0.170E+00 -.320E+01   0.324E-03 -.426E-03 -.232E-02
   -.778E+02 0.584E+02 -.402E+03   0.817E+02 -.628E+02 0.399E+03   -.353E+01 0.483E+01 0.355E+01   -.188E-03 -.153E-02 -.604E-03
   0.201E+01 -.122E+03 -.164E+04   0.102E+01 0.124E+03 0.164E+04   -.242E+01 -.232E+01 -.254E+01   -.717E-02 -.978E-03 -.161E-01
   0.529E+02 -.125E+02 -.145E+04   -.534E+02 0.123E+02 0.145E+04   0.514E+00 -.128E+00 -.131E+01   -.219E-02 -.358E-03 -.127E-01
   -.949E+01 -.414E+02 -.170E+04   0.345E+01 0.477E+02 0.171E+04   0.511E+01 -.446E+01 -.737E+00   -.178E-02 -.538E-02 -.938E-02
   -.329E+03 -.783E+02 -.255E+04   0.357E+03 0.112E+03 0.258E+04   -.269E+02 -.337E+02 -.238E+02   -.796E-02 -.230E-02 -.378E-02
   0.732E+02 0.339E+03 -.260E+04   -.906E+02 -.387E+03 0.259E+04   0.167E+02 0.464E+02 0.997E+01   -.110E-01 -.101E-02 -.262E-02
   0.926E+01 -.647E+01 0.855E+01   -.455E-12 -.739E-12 -.241E-10   -.913E+01 0.637E+01 -.107E+02   -.216E-01 -.168E-01 0.195E+01

 POSITION                                       TOTAL-FORCE (eV/Angst)
      1.25672      0.73080      9.61451         0.106273     -0.248625     -0.023589
     -0.10160      3.10735      9.62451        -0.115522      0.159343     -0.042068
     -1.44908      5.44227      9.61487         0.258554     -0.062453      0.072743
     -2.83121      7.78355      9.60464        -0.440113      0.014199      0.012617
      3.95492      0.75296      9.60964        -0.057649      0.236709     -0.063092
      2.61602      3.09050      9.61868         0.127159     -0.157652     -0.084349
      1.23916      5.44551      9.62088        -0.264022      0.177591     -0.172217
     -0.08954      7.77286      9.61156         0.359033     -0.146427     -0.013399
      6.65118      0.72893      9.61812         0.011551     -0.132709      0.071039
      5.28483      3.09173      9.62713        -0.135891     -0.046443     -0.170919
      3.95709      5.42908      9.63245         0.163879     -0.067432     -0.055318
      2.57944      7.76981      9.62223        -0.302616      0.062495     -0.134721
      9.36605      0.74506      9.63477        -0.013371      0.036069     -0.110276
      8.02070      3.09168      9.63642         0.097393     -0.029824     -0.050664
      6.64703      5.45185      9.61697        -0.164811      0.208239     -0.096686
      5.32647      7.76746      9.61611         0.355148     -0.034903      0.002069
     -0.10886      1.52344     11.65716         0.073441     -0.011269      0.072228
     -1.46810      3.86556     11.66024         0.059341      0.071043      0.071508
     -2.82166      6.20702     11.67289        -0.000152      0.026733     -0.016165
     -4.16887      8.56949     11.66239        -0.009634      0.009116     -0.008762
      2.59837      1.53394     11.67375        -0.039915     -0.016000     -0.043846
      1.25152      3.87610     11.68533        -0.000612     -0.037810     -0.018246
     -0.09607      6.21419     11.67813        -0.119445     -0.018962     -0.043329
     -1.46160      8.56213     11.66647         0.033739     -0.016266     -0.074709
      5.31113      1.54158     11.67918        -0.008835     -0.078959     -0.000870
      3.95145      3.86660     11.66707         0.040585     -0.061899      0.281113
      2.59678      6.21595     11.66842        -0.006689      0.006708      0.365706
      1.25714      8.55623     11.67811        -0.042082      0.056239     -0.001398
      8.01566      1.52679     11.64862        -0.070668     -0.044526      0.088124
      6.65397      3.87213     11.67616        -0.030786      0.014793     -0.024999
      5.30530      6.20418     11.68315         0.117647      0.075603      0.000858
      3.94449      8.55676     11.67119         0.034212     -0.056315     -0.014806
      1.25150      0.74504     13.84661         0.035981      0.065746     -0.027884
     -0.10515      3.08564     13.85149         0.144484      0.065057     -0.041109
     -1.45651      5.43855     13.85254         0.004718      0.011323     -0.091709
     -2.80852      7.78351     13.83923        -0.016438     -0.049705     -0.134784
      3.95214      0.74188     13.84610        -0.027779      0.000293     -0.138041
      2.60437      3.08884     13.86602         0.096515      0.099887     -0.141272
      1.23544      5.42816     13.86117         0.187885      0.085069     -0.086444
     -0.10637      7.77602     13.85632        -0.025921     -0.005489     -0.251607
      6.65829      0.73805     13.85918        -0.012395      0.056965     -0.025048
      5.30238      3.08713     13.86690         0.023677      0.238932     -0.090716
      3.95801      5.42903     13.86260        -0.092706     -0.080426      0.190699
      2.59764      7.78721     13.85800         0.150998     -0.083120     -0.006610
      9.36722      0.74161     13.84528        -0.010113     -0.074123     -0.184880
      8.01099      3.08562     13.84874        -0.204715      0.086450     -0.180174
      6.66943      5.43093     13.84917         0.008842     -0.175137     -0.175491
      5.30752      7.78693     13.84392        -0.121526     -0.024192     -0.057322
     -0.09137      1.51067     15.88980         0.354485     -0.218223      0.131423
     -1.47100      3.87396     15.89055         0.040664      0.383221      0.089477
     -2.80180      6.21142     15.90035         0.084698     -0.188829      0.126416
     -4.17756      8.57744     15.88909        -0.319528      0.137033      0.124419
      2.57513      1.50107     15.90250        -0.318499     -0.180128      0.112629
      1.20921      3.83185     15.89274        -0.391379     -0.149650      0.123456
     -0.13807      6.21444     15.90403        -0.387701     -0.016678      0.023042
     -1.45292      8.56186     15.90971         0.343656     -0.035745      0.464336
      5.33021      1.49163     15.90474         0.347131     -0.355414      0.099435
      3.96778      3.86249     15.98053        -0.024624     -0.209303     -0.657509
      2.59278      6.22008     15.93126        -0.200316      0.065265      0.309139
      1.22059      8.59470     15.89516        -0.397970      0.263161     -0.073592
[...]
      5.33799      6.25111     15.87312         0.191186      0.447752      0.205253
      3.98249      8.57954     15.89563         0.358172      0.012195      0.109834
      2.29840      6.13690     18.14933         0.003179      0.105320      0.806574
      1.69646      6.92919     18.44202         0.407043      0.028673     -0.293028
      1.69198      5.33907     18.37826         0.062097     -0.290537     -0.296725
      4.03642      7.03058     19.01520        -0.320489     -0.280833     -0.090218
      2.41243      6.45512     20.93616        -0.149004      0.210961      0.152039
      2.67538      4.72289     20.58001        -0.138483      0.073189     -0.034959
      4.02332      5.70617     21.12755         0.038881      0.170941      0.121466
      6.18827      4.48572     18.35615         0.370772      0.407218      0.369673
      3.47601      6.07282     19.06414         0.596117     -0.102294      0.192622
      3.11187      5.73181     20.52008         0.057121     -0.245023     -0.153429
      4.43798      4.95200     18.62616        -0.934999      1.791440      0.382277
      5.69666      5.20906     18.88123         0.888545     -0.487224     -0.185079
      4.04638      3.87826     18.17629        -0.714957     -1.289639     -0.574477
    total drift:                                0.103376     -0.111996     -0.195438

  FREE ENERGIE OF THE ION-ELECTRON SYSTEM (eV)
  free  energy   TOTEN  =      -636.93748289 eV

  energy  without entropy=     -636.90392853  energy(sigma->0) =     -636.92629810

 d Force = 0.4166180E-02[ 0.989E-05, 0.832E-02]  d Energy = 0.4224224E-02-0.580E-04
 d Force = 0.2434196E+02[ 0.243E+02, 0.244E+02]  d Ewald  = 0.2434195E+02 0.109E-04

 writing wavefunctions